 vasp.6.3.0 20Jan22 (build Feb 21 2022 11:18:28) complex
 executed on       CrayXC_GCC_OMP date 2023.09.17  21:58:09

 INCAR:
   NWRITE = 2        (Medium-level output)
   ISTART = 1        (Read existing wavefunction
   INIWAV = 1        (Random initial wavefunction
   ICORELEVEL = 1    (Print core levels)
   LCHARG = .FALSE.
   LWAVE = .FALSE.
   LPLANE = TRUE (Real space distribution
   NCORE = 16     (how many cores share the work on an individual orbital)
   PREC = Accurate  (Precision level)
   LREAL = .FALSE. (Accurate forces
   ALGO = FAST      (SCF minimisation algorithm
   ENMAX = 500.00 eV (Plane-wave cutoff)
   NELM = 500     (Max SCF steps)
   NELMIN = 3        (Min SCF steps)
   EDIFF = 1E-09     (SCF energy convergence
   ISPIN = 1        (Closed shell DFT)
   GGA = PS     (PBEsol exchange-correlation)
   ADDGRID = TRUE  (Increase grid
   BMIX = 1
   KBLOCK = 100
   MAXMIX = 20
   EDIFFG = -1E-08    (Ionic convergence
   NSW = 10        (Max ionic steps
   NBLOCK = 1     (Update XDATCAR, DOSCAR every NBLOCK steps)
   IBRION = 2     (Algorithm: 0-MD
   ISIF = 2     (Stress/relaxation: 2-Ions, 3-Shape/Ions/V, 7-Vol)
   ISYM = 2     (Symmetry: 0\=none
   2 = GGA
   3 = hybrids)
   ISMEAR = 0     (Gaussian smearing
   SIGMA = 0.01  (Smearing value in eV
   LORBIT = 11     (PAW radii for projected DOS)
   NEDOS = 1000    (DOSCAR points)
   LMAXMIX = 4       (Mixing cut-off
   ML_ISTART = 0
   ML_LMLFF = TRUE

 POTCAR:    PAW_PBE Pb_d 06Sep2000
 POTCAR:    PAW_PBE Te 08Apr2002
 POTCAR:    PAW_PBE Pb_d 06Sep2000
   VRHFIN =Pb:

   TITEL  = PAW_PBE Pb_d 06Sep2000
   POMASS =  207.200; ZVAL   =   14.000    mass and valenz
   ENMAX  =  237.835; ENMIN  =  178.376 eV

 POTCAR:    PAW_PBE Te 08Apr2002
   VRHFIN =Te: s2p4

   TITEL  = PAW_PBE Te 08Apr2002
   POMASS =  127.600; ZVAL   =    6.000    mass and valenz
   ENMAX  =  174.982; ENMIN  =  131.236 eV

  PAW_PBE Pb_d 06Sep2000                :
  PAW_PBE Te 08Apr2002                  :

 POSCAR: Pb Te
  positions in direct lattice
  velocities in cartesian coordinates
 exchange correlation table for  LEXCH =       14
   RHO(1)=    0.500       N(1)  =     2000
   RHO(2)=  100.500       N(2)  =     4000

 ion  position               nearest neighbor table
   1  0.249  0.251  0.250-  15 3.24  12 3.24  11 3.24  14 3.24  13 3.24  10 3.24
   2  0.751  0.250  0.250-  13 3.24  16 3.24  11 3.24  14 3.24   9 3.24  12 3.24
   3  0.249  0.749  0.251-  15 3.24   9 3.24  13 3.24  12 3.24  16 3.24  10 3.24
   4  0.750  0.750  0.250-  15 3.24   9 3.24  11 3.24  14 3.24  16 3.24  10 3.24
   5  0.250  0.250  0.750-  10 3.24  16 3.24  11 3.24   9 3.24  14 3.24  15 3.24
   6  0.749  0.249  0.751-  10 3.24  16 3.24  12 3.24  13 3.24   9 3.24  15 3.24
   7  0.251  0.750  0.750-  12 3.24  11 3.24   9 3.24  14 3.24  16 3.24  13 3.24
   8  0.750  0.751  0.750-  14 3.24  13 3.24  10 3.24  12 3.24  11 3.24  15 3.24
   9  0.000  1.000  0.000-   3 3.24   4 3.24   7 3.24   5 3.24   2 3.24   6 3.24
  10  0.499  1.000  0.001-   6 3.24   5 3.24   8 3.24   4 3.24   3 3.24   1 3.24
  11  1.000  0.500  1.000-   1 3.24   5 3.24   7 3.24   2 3.24   4 3.24   8 3.24
  12  0.501  0.500  0.000-   7 3.24   1 3.24   6 3.24   3 3.24   8 3.24   2 3.24
  13  0.001  1.000  0.500-   8 3.24   2 3.24   3 3.24   6 3.24   1 3.24   7 3.24
  14  0.500  0.000  0.500-   8 3.24   7 3.24   2 3.24   4 3.24   5 3.24   1 3.24
  15  0.999  0.500  0.501-   3 3.24   1 3.24   4 3.24   8 3.24   5 3.24   6 3.24
  16  0.500  0.500  0.500-   6 3.24   2 3.24   5 3.24   3 3.24   4 3.24   7 3.24

  LATTYP: Found a base centered monoclinic cell.
 ALAT       =    12.9571624175
 B/A-ratio  =     1.0000375891
 C/A-ratio  =     1.5811711474
 COS(beta)  =    -0.9486721708

  Lattice vectors:

 A1 = (  -0.0000172022,  -6.4788417597,  -6.4785982313)
 A2 = (  -0.0001520929,   6.4788077056,  -6.4785641850)
 A3 = (   6.4796514372,  -0.0000163564,  19.4358282497)

Analysis of symmetry for initial positions (statically):
 Subroutine PRICEL returns:
 Original cell was already a primitive cell.

 Routine SETGRP: Setting up the symmetry group for a
 base centered monoclinic supercell.

 Subroutine GETGRP returns: Found  1 space group operations
 (whereof  1 operations were pure point group operations)
 out of a pool of  4 trial point group operations.

The static configuration has the point symmetry C_1 .

Analysis of symmetry for dynamics (positions and initial velocities):
 Subroutine PRICEL returns:
 Original cell was already a primitive cell.

 Routine SETGRP: Setting up the symmetry group for a
 base centered monoclinic supercell.

 Subroutine GETGRP returns: Found  1 space group operations
 (whereof  1 operations were pure point group operations)
 out of a pool of  4 trial point group operations.

The dynamic configuration has the point symmetry C_1 .

 Subroutine INISYM returns: Found  1 space group operations
 (whereof  1 operations are pure point group operations),
 and found     1 'primitive' translations

                                     Primitive cell

  volume of cell :     543.9272

  direct lattice vectors                    reciprocal lattice vectors
     0.000017202  6.478841760  6.478598231    -0.077167874  0.077173485  0.077178197
     6.479482142 -0.000050411  6.478665833     0.077165858 -0.077173890  0.077176586
     6.479330049  6.478757295  0.000101648     0.077169480  0.077175497 -0.077178603

  length of vectors
     9.162293686  9.162794323  9.162751442     0.133667878  0.133666018  0.133670201

  position of ions in fractional coordinates (direct lattice)
     0.249498477  0.251206726  0.249955299
     0.750591490  0.249614275  0.250472289
     0.249153244  0.749423384  0.250798712
     0.750279748  0.749798704  0.250236307
     0.250245846  0.249752764  0.750379959
     0.749114210  0.249414701  0.750795224
     0.250626581  0.749557386  0.750478776
     0.749548148  0.751186555  0.749820200
     0.000094278  0.999933975  0.000007317
     0.499123448  0.999682061  0.001232572
     0.999887470  0.500337737  0.999675595
     0.500590400  0.499946473  0.000253444
     0.000645395  0.999893809  0.500233711
     0.499857664  0.000327767  0.499732580
     0.999173592  0.499676289  0.501173881
     0.500010731  0.499926637  0.500018030

  ion indices of the primitive-cell ions
   primitive index   ion index
                 1           1
                 2           2
                 3           3
                 4           4
                 5           5
                 6           6
                 7           7
                 8           8
                 9           9
                10          10
                11          11
                12          12
                13          13
                14          14
                15          15
                16          16

 KPOINTS: Regular k-point mesh

Automatic generation of k-mesh.
 Grid dimensions read from file:
 generate k-points for:    6    6    6

 Generating k-lattice:

  Cartesian coordinates                     Fractional coordinates (reciprocal lattice)
    -0.012861312  0.012862247  0.012863033     0.166666667  0.000000000  0.000000000
     0.012860976 -0.012862315  0.012862764     0.000000000  0.166666667 -0.000000000
     0.012861580  0.012862583 -0.012863100    -0.000000000  0.000000000  0.166666667

  Length of vectors
     0.022277980  0.022277670  0.022278367

  Shift w.r.t. Gamma in fractional coordinates (k-lattice)
     0.000000000  0.000000000  0.000000000

 Subroutine IBZKPT returns following result:

 Found    112 irreducible k-points:

 Following reciprocal coordinates:
            Coordinates               Weight
  0.000000  0.000000  0.000000      1.000000
  0.166667  0.000000  0.000000      2.000000
  0.000000  0.166667  0.000000      2.000000
  0.333333  0.000000  0.000000      2.000000
  0.000000  0.333333  0.000000      2.000000
  0.500000  0.000000  0.000000      1.000000
  0.000000  0.500000  0.000000      1.000000
  0.166667  0.166667  0.000000      2.000000
  0.333333  0.166667  0.000000      2.000000
  0.166667  0.333333  0.000000      2.000000
  0.500000  0.166667  0.000000      2.000000
  0.166667  0.500000  0.000000      2.000000
 -0.333333  0.166667  0.000000      2.000000
  0.166667 -0.333333  0.000000      2.000000
 -0.166667  0.166667  0.000000      2.000000
  0.333333  0.333333  0.000000      2.000000
  0.500000  0.333333  0.000000      2.000000
  0.333333  0.500000  0.000000      2.000000
 -0.333333  0.333333  0.000000      2.000000
  0.500000  0.500000  0.000000      1.000000
  0.000000  0.000000  0.166667      2.000000
 -0.166667 -0.166667 -0.166667      2.000000
  0.166667  0.000000  0.166667      2.000000
  0.333333  0.000000  0.166667      2.000000
 -0.166667  0.166667 -0.166667      2.000000
  0.500000  0.000000  0.166667      2.000000
 -0.166667  0.333333 -0.166667      2.000000
 -0.333333  0.000000  0.166667      2.000000
 -0.166667  0.500000 -0.166667      2.000000
 -0.166667  0.000000  0.166667      2.000000
 -0.166667 -0.333333 -0.166667      2.000000
  0.000000  0.166667  0.166667      2.000000
  0.333333  0.166667  0.166667      2.000000
  0.000000  0.166667 -0.166667      2.000000
  0.500000  0.166667  0.166667      2.000000
  0.000000  0.333333 -0.166667      2.000000
 -0.333333  0.166667  0.166667      2.000000
  0.000000  0.500000 -0.166667      2.000000
 -0.166667  0.166667  0.166667      2.000000
  0.000000 -0.333333 -0.166667      2.000000
  0.333333  0.333333  0.166667      2.000000
  0.166667  0.166667 -0.166667      2.000000
  0.500000  0.333333  0.166667      2.000000
  0.166667  0.333333 -0.166667      2.000000
 -0.333333  0.333333  0.166667      2.000000
  0.166667  0.500000 -0.166667      2.000000
 -0.166667  0.333333  0.166667      2.000000
  0.333333  0.500000  0.166667      2.000000
  0.333333  0.166667 -0.166667      2.000000
  0.500000  0.500000  0.166667      2.000000
  0.333333  0.333333 -0.166667      2.000000
 -0.333333  0.500000  0.166667      2.000000
  0.333333 -0.333333  0.166667      2.000000
  0.500000  0.166667 -0.166667      2.000000
  0.500000 -0.333333  0.166667      2.000000
  0.333333 -0.166667  0.166667      2.000000
  0.000000  0.000000  0.333333      2.000000
 -0.333333 -0.333333 -0.333333      2.000000
  0.166667  0.000000  0.333333      2.000000
 -0.333333 -0.166667 -0.333333      2.000000
[...]
  0.500000 -0.166667  0.500000      2.000000
  0.500000  0.000000  0.500000      1.000000
  0.000000  0.166667  0.500000      2.000000
 -0.333333  0.500000  0.500000      2.000000
  0.166667  0.166667  0.500000      2.000000
 -0.333333 -0.333333  0.500000      2.000000
  0.333333  0.166667  0.500000      2.000000
 -0.333333  0.166667  0.500000      2.000000
 -0.166667  0.166667  0.500000      2.000000
 -0.333333  0.333333  0.500000      2.000000
  0.000000  0.333333  0.500000      2.000000
 -0.166667  0.500000  0.500000      2.000000
  0.166667  0.333333  0.500000      2.000000
 -0.166667  0.333333  0.500000      2.000000
  0.000000  0.500000  0.500000      1.000000

 Following cartesian coordinates:
            Coordinates               Weight
  0.000000  0.000000  0.000000      1.000000
[...]

[...]

 Broyden mixing:
  rms(total) = 0.99276E-04    rms(broyden)= 0.96113E-04
  rms(prec ) = 0.10279E-03
  weight for this iteration     100.00

[...]

 eigenvalue-minimisations  : 12502
 total energy-change (2. order) : 0.1522494E-08  (-0.1637400E-10)
 number of electron     160.0000002 magnetization
 augmentation part       34.9498243 magnetization

 Broyden mixing:
  rms(total) = 0.24863E-04    rms(broyden)= 0.48830E-06
  rms(prec ) = 0.54991E-06
  weight for this iteration     100.00
  WARNING: grid for Broyden might be to small

 eigenvalues of (default mixing * dielectric matrix)
  average eigenvalue GAMMA=   2.0218
  3.8110  3.2521  0.6492  0.7579  0.7579  0.8875  1.1336  1.1336  2.5161  2.5161
  1.7658  1.7658  1.9378  2.8650  2.7324  2.3258  2.5427  2.5427  2.5213

[...]

--------------------------------------- Iteration      6(  20)  ---------------------------------------

 eigenvalue-minimisations  : 11562
 total energy-change (2. order) :-0.7239578E-09  (-0.1038267E-10)
 number of electron     160.0000002 magnetization
 augmentation part       34.9498243 magnetization

 Free energy of the ion-electron system (eV)
  alpha Z        PSCENC =       285.96894664
  Ewald energy   TEWEN  =    -11083.95898823
  -Hartree energ DENC   =     -4021.30215292
  -exchange      EXHF   =         0.00000000
  -V(xc)+E(xc)   XCENC  =        91.51023371
  PAW double counting   =     14839.07274538   -14402.55689184
  entropy T*S    EENTRO =        -0.00000000
  eigenvalues    EBANDS =      -858.83463046
  atomic energy  EATOM  =     15084.04723528
  Solvation  Ediel_sol  =         0.00000000
  free energy    TOTEN  =       -66.05350243 eV

  energy without entropy =      -66.05350243  energy(sigma->0) =      -66.05350243

 the core state eigenenergies are
   1-  1s -88082.0222  2s -15743.5194  2p -13498.2823  3s  -3771.7681  3p  -3128.3056
       3d  -2473.3579  4s   -846.2911  4p   -635.4979  4d   -391.8850  4f   -122.9167
       5s   -134.0879  5p    -75.7842
   2-  1s -88082.0198  2s -15743.5171  2p -13498.2800  3s  -3771.7659  3p  -3128.3034
       3d  -2473.3557  4s   -846.2890  4p   -635.4958  4d   -391.8829  4f   -122.9146
       5s   -134.0860  5p    -75.7823
   3-  1s -88082.0251  2s -15743.5222  2p -13498.2851  3s  -3771.7708  3p  -3128.3083
       3d  -2473.3606  4s   -846.2937  4p   -635.5005  4d   -391.8876  4f   -122.9192
       5s   -134.0902  5p    -75.7865
   4-  1s -88082.0190  2s -15743.5163  2p -13498.2792  3s  -3771.7651  3p  -3128.3026
       3d  -2473.3549  4s   -846.2882  4p   -635.4951  4d   -391.8821  4f   -122.9138
       5s   -134.0853  5p    -75.7816
   5-  1s -88082.0241  2s -15743.5212  2p -13498.2841  3s  -3771.7698  3p  -3128.3074
       3d  -2473.3596  4s   -846.2928  4p   -635.4996  4d   -391.8867  4f   -122.9183
       5s   -134.0894  5p    -75.7857
   6-  1s -88082.0177  2s -15743.5150  2p -13498.2779  3s  -3771.7638  3p  -3128.3014
       3d  -2473.3536  4s   -846.2871  4p   -635.4939  4d   -391.8810  4f   -122.9127
       5s   -134.0842  5p    -75.7806
   7-  1s -88082.0230  2s -15743.5201  2p -13498.2830  3s  -3771.7688  3p  -3128.3063
       3d  -2473.3586  4s   -846.2918  4p   -635.4986  4d   -391.8857  4f   -122.9173
       5s   -134.0885  5p    -75.7848
   8-  1s -88082.0206  2s -15743.5179  2p -13498.2808  3s  -3771.7666  3p  -3128.3041
       3d  -2473.3564  4s   -846.2897  4p   -635.4965  4d   -391.8836  4f   -122.9153
       5s   -134.0866  5p    -75.7829
   9-  1s -31609.9850  2s  -4837.5594  2p  -4340.9563  3s   -953.7656  3p   -792.4235
       3d   -548.6746  4s   -153.2554  4p   -103.2932  4d    -30.6125
  10-  1s -31609.9846  2s  -4837.5589  2p  -4340.9559  3s   -953.7651  3p   -792.4231
       3d   -548.6742  4s   -153.2549  4p   -103.2927  4d    -30.6120
  11-  1s -31609.9838  2s  -4837.5581  2p  -4340.9550  3s   -953.7642  3p   -792.4221
       3d   -548.6732  4s   -153.2538  4p   -103.2916  4d    -30.6108
  12-  1s -31609.9846  2s  -4837.5590  2p  -4340.9559  3s   -953.7652  3p   -792.4231
       3d   -548.6742  4s   -153.2549  4p   -103.2927  4d    -30.6120
  13-  1s -31609.9846  2s  -4837.5589  2p  -4340.9559  3s   -953.7651  3p   -792.4230
       3d   -548.6741  4s   -153.2549  4p   -103.2927  4d    -30.6120
  14-  1s -31609.9855  2s  -4837.5599  2p  -4340.9568  3s   -953.7662  3p   -792.4241
       3d   -548.6752  4s   -153.2561  4p   -103.2939  4d    -30.6133
  15-  1s -31609.9847  2s  -4837.5591  2p  -4340.9560  3s   -953.7653  3p   -792.4232
       3d   -548.6743  4s   -153.2550  4p   -103.2929  4d    -30.6122
  16-  1s -31609.9843  2s  -4837.5587  2p  -4340.9556  3s   -953.7648  3p   -792.4227
       3d   -548.6738  4s   -153.2545  4p   -103.2923  4d    -30.6116

 E-fermi :   5.4058     XC(G=0):  -9.4352     alpha+bet :-10.7353

 Fermi energy:         5.4057694898

[...]

 k-point   112 :       0.0000    0.5000    0.5000
  band No.  band energies     occupation
      1     -11.2991      2.00000
      2     -11.2989      2.00000
      3     -11.2814      2.00000
      4     -11.2810      2.00000
      5     -11.2749      2.00000
      6     -11.2745      2.00000
      7     -11.2745      2.00000
      8     -11.2740      2.00000
      9     -11.2663      2.00000
     10     -11.2660      2.00000
     11     -11.2660      2.00000
     12     -11.2659      2.00000
     13     -11.2571      2.00000
     14     -11.2570      2.00000
     15     -11.2509      2.00000
     16     -11.2507      2.00000
     17     -11.2500      2.00000
     18     -11.2499      2.00000
     19     -11.2411      2.00000
     20     -11.2401      2.00000
     21     -11.2398      2.00000
     22     -11.2394      2.00000
     23     -11.2390      2.00000
     24     -11.2384      2.00000
     25     -11.2379      2.00000
     26     -11.2367      2.00000
     27     -11.2352      2.00000
     28     -11.2340      2.00000
     29     -11.2338      2.00000
     30     -11.2337      2.00000
     31     -11.2337      2.00000
     32     -11.2335      2.00000
     33     -11.2332      2.00000
     34     -11.2329      2.00000
     35     -11.2323      2.00000
     36     -11.2319      2.00000
     37     -11.2316      2.00000
     38     -11.2306      2.00000
     39     -11.2199      2.00000
     40     -11.2197      2.00000
     41      -5.9360      2.00000
     42      -5.9307      2.00000
     43      -5.3815      2.00000
     44      -5.3716      2.00000
     45      -5.3682      2.00000
     46      -5.3583      2.00000
     47      -4.7902      2.00000
     48      -4.7901      2.00000
     49      -2.6118      2.00000
     50      -2.6118      2.00000
     51      -2.5591      2.00000
     52      -2.5472      2.00000
     53      -2.5441      2.00000
     54      -2.5321      2.00000
     55      -1.4992      2.00000
     56      -1.4918      2.00000
     57       1.6095      2.00000
     58       1.6095      2.00000
     59       1.6136      2.00000
     60       1.6136      2.00000
[...]
     82       7.0019      0.00000
     83       7.0043      0.00000
     84       7.0053      0.00000
     85       7.0055      0.00000
     86       7.0247      0.00000
     87       7.1217      0.00000
     88       7.1356      0.00000
     89       7.1397      0.00000
     90       7.1546      0.00000
     91       7.9205      0.00000
     92       7.9359      0.00000
     93       9.3697      0.00000
     94       9.3735      0.00000
     95       9.8322      0.00000
     96       9.8362      0.00000

 soft charge-density along one line, spin component           1
         0         1         2         3         4         5         6         7         8         9
 total charge-density along one line

------------------------ aborting loop because EDIFF is reached ----------------------------------------

 total charge

# of ion       s       p       d       tot
    1        1.449   0.578   9.830  11.857
    2        1.449   0.579   9.830  11.857
    3        1.449   0.577   9.830  11.856
    4        1.449   0.579   9.830  11.858
    5        1.449   0.578   9.830  11.856
    6        1.449   0.579   9.830  11.858
    7        1.449   0.578   9.830  11.857
    8        1.449   0.578   9.830  11.857
    9        1.376   1.984   0.018   3.378
   10        1.376   1.984   0.018   3.378
   11        1.376   1.984   0.018   3.378
   12        1.376   1.984   0.018   3.378
   13        1.376   1.984   0.018   3.378
   14        1.376   1.984   0.018   3.378
   15        1.376   1.984   0.018   3.378
   16        1.376   1.984   0.018   3.378
tot         22.595  20.497  78.786 121.878

  FORCE on cell =-STRESS in cart. coord.  units (eV):
  Direction    XX          YY          ZZ          XY          YZ          ZX
  Alpha Z   285.96895   285.96895   285.96895
  Ewald   -3695.29717 -3694.52649 -3694.16007     0.00443    -0.00850     0.04920
  Hartree  1340.14817  1340.49702  1340.65699     0.00868    -0.00600     0.01936
  E(xc)    -713.89863  -713.89899  -713.89928    -0.00004     0.00000     0.00007
  Local    -965.51581  -966.64124  -967.17043    -0.01301     0.01468    -0.06746
  n-local  1425.39492  1425.42536  1425.44264    -0.00029    -0.00021     0.00087
  augment   769.54471   769.54337   769.54220    -0.00053    -0.00010     0.00067
  Kinetic  1551.09492  1551.10558  1551.11028     0.00232     0.00012    -0.00501
  Fock        0.00000     0.00000     0.00000     0.00000     0.00000     0.00000
  Total      -2.55996    -2.52645    -2.50873     0.00158    -0.00000    -0.00229
  in kB      -7.54054    -7.44185    -7.38965     0.00464    -0.00000    -0.00674

 VOLUME and BASIS-vectors are now :
  energy-cutoff  :      500.00
  volume of cell :      543.93
      direct lattice vectors                 reciprocal lattice vectors
     0.000017202  6.478841760  6.478598231    -0.077167874  0.077173485  0.077178197
     6.479482142 -0.000050411  6.478665833     0.077165858 -0.077173890  0.077176586
     6.479330049  6.478757295  0.000101648     0.077169480  0.077175497 -0.077178603

[...]

 FORCES acting on ions
    electron-ion (+dipol)            ewald-force                    non-local-force                 convergence-correction
   0.848E+00 -.736E+00 0.115E+01   -.936E+00 0.853E+00 -.126E+01   0.873E-01 -.112E+00 0.110E+00   -.452E-05 0.531E-05 -.484E-05
   -.587E+00 0.941E+00 -.124E+00   0.673E+00 -.105E+01 0.777E-01   -.796E-01 0.106E+00 0.458E-01   -.156E-05 -.564E-05 0.209E-05
   -.262E+00 -.215E+00 -.173E+01   0.287E+00 0.225E+00 0.192E+01   -.241E-01 -.895E-02 -.178E+00   0.104E-05 0.429E-05 0.547E-05
   -.118E+00 0.144E+00 0.432E+00   0.151E+00 -.151E+00 -.444E+00   -.363E-01 0.444E-02 0.126E-01   0.341E-05 -.357E-05 -.478E-05
   -.805E+00 -.139E+00 0.437E+00   0.874E+00 0.167E+00 -.471E+00   -.615E-01 -.235E-01 0.323E-01   0.839E-07 -.584E-05 -.294E-05
   -.235E+00 0.612E-01 -.160E+01   0.256E+00 -.662E-01 0.177E+01   -.212E-01 0.194E-02 -.166E+00   0.201E-05 0.510E-05 0.732E-05
   -.296E+00 0.845E+00 0.391E+00   0.364E+00 -.944E+00 -.449E+00   -.668E-01 0.954E-01 0.520E-01   -.767E-06 -.582E-05 0.383E-05
   0.119E+01 -.996E+00 0.108E+01   -.133E+01 0.109E+01 -.119E+01   0.127E+00 -.905E-01 0.102E+00   -.187E-05 0.567E-05 -.610E-05
   0.560E+00 -.458E+00 -.452E+00   -.590E+00 0.471E+00 0.444E+00   0.239E-01 -.615E-02 0.263E-01   0.203E-06 -.565E-06 0.662E-06
   -.898E+00 0.291E+00 0.141E+01   0.929E+00 -.309E+00 -.146E+01   -.108E-01 0.205E-01 0.168E-01   0.388E-06 0.810E-06 -.103E-05
   0.528E+00 0.557E+00 -.512E+00   -.537E+00 -.576E+00 0.542E+00   -.365E-02 0.300E-02 -.243E-01   -.256E-06 -.684E-06 -.517E-06
   -.239E+00 -.392E+00 -.628E+00   0.236E+00 0.411E+00 0.651E+00   0.109E-01 -.113E-01 -.103E-01   -.307E-07 0.755E-06 0.698E-06
   0.474E+00 -.710E+00 -.721E+00   -.474E+00 0.729E+00 0.744E+00   -.146E-01 0.648E-03 -.809E-02   -.497E-06 0.840E-06 0.784E-06
   0.517E-01 0.521E+00 -.178E+00   -.630E-01 -.540E+00 0.209E+00   0.132E-01 0.794E-02 -.372E-01   -.194E-06 -.785E-06 -.607E-06
   -.533E+00 0.477E-01 0.822E+00   0.566E+00 -.665E-01 -.869E+00   -.284E-01 0.239E-01 0.356E-01   0.204E-06 0.816E-06 -.583E-06
   0.377E+00 0.257E+00 0.212E+00   -.408E+00 -.241E+00 -.217E+00   0.280E-01 -.320E-01 -.131E-02   0.273E-06 -.106E-05 0.600E-06
   0.569E-01 0.201E-01 -.749E-02   -.144E-13 -.194E-15 0.387E-13   -.569E-01 -.201E-01 0.749E-02   -.209E-05 -.382E-06 0.534E-07

 POSITION                                       TOTAL-FORCE (eV/Angst)
      3.24149      3.23995      3.23943        -0.001153      0.005080     -0.006147
      3.23780      6.48090      6.48131         0.006613     -0.006283     -0.000405
      6.48170      3.24276      6.47492         0.001043      0.001439      0.010448
      6.48277      6.47882      9.71426        -0.003235     -0.002271      0.001022
      6.47945      6.47584      3.23760         0.007492      0.004872     -0.002016
      6.48196      9.72298      6.47627         0.000321     -0.003027      0.007632
      9.71878      6.47971      6.48258         0.001605     -0.003523     -0.006430
      9.72508      9.72043      9.71731        -0.010937      0.004362     -0.004291
      6.48338      0.00155      6.47218        -0.006019      0.007108      0.018810
     -0.00459      3.23900      3.24833         0.020312      0.002245     -0.028303
      3.24588      0.00806      3.23790        -0.013139     -0.015736      0.005683
      3.24109      3.23602      6.47213         0.008207      0.008371      0.012932
      3.24566      3.23379     -0.00673        -0.014722      0.019161      0.014789
      3.24276      6.48558      3.24036         0.001895     -0.010928     -0.005911
      6.47845      3.23883      3.24526         0.004112      0.005066     -0.011734
      6.48282      6.48504      6.47758        -0.002395     -0.015935     -0.006078
    total drift:                               -0.000010     -0.000005      0.000000

  FREE ENERGIE OF THE ION-ELECTRON SYSTEM (eV)
  free  energy   TOTEN  =       -66.05350243 eV

  energy  without entropy=      -66.05350243  energy(sigma->0) =      -66.05350243

 d Force =-0.5585318E-03[-0.196E-02, 0.844E-03]  d Energy =-0.5580694E-03-0.462E-06
 d Force =-0.2700625E-01[-0.385E-01,-0.155E-01]  d Ewald  =-0.2700978E-01 0.354E-05

[...]

  ML FORCE on cell =-STRESS in cart. coord. units (eV/cell)
  Direction    XX          YY          ZZ          XY          YZ          ZX
  Total:     -2.53489    -2.53545    -2.53561     0.00012    -0.00004    -0.00011
  in kB      -7.46669    -7.46834    -7.46882     0.00034    -0.00012    -0.00034

  Total+kin.    -7.467      -7.468      -7.469       0.000      -0.000      -0.000
  volume of cell :      543.93
      direct lattice vectors                 reciprocal lattice vectors
     0.000017202  6.478841760  6.478598231    -0.077167874  0.077173485  0.077178197
     6.479482142 -0.000050411  6.478665833     0.077165858 -0.077173890  0.077176586
     6.479330049  6.478757295  0.000101648     0.077169480  0.077175497 -0.077178603

  length of vectors
     9.162293686  9.162794323  9.162751442     0.133667878  0.133666018  0.133670201

  POSITION                                       TOTAL-FORCE (eV/Angst) (ML)
      3.24442      3.23786      3.24172        -0.000286      0.000769     -0.000130
      3.23906      6.48335      6.48063        -0.000003     -0.000146     -0.001065
      6.48128      3.24087      6.47213        -0.000055     -0.000414      0.000311
      6.48119      6.48051      9.71642         0.000703      0.000178      0.000409
      6.47985      6.47940      3.23851        -0.000663      0.000099     -0.000060
      6.48134      9.72023      6.47264        -0.000048      0.000137      0.000423
      9.71907      6.48287      6.48122         0.000534     -0.000156      0.000258
      9.72537      9.71719      9.72010        -0.000247     -0.000488     -0.000144
      6.48120      0.00107      6.47558        -0.001344      0.003407      0.002662
      0.00078      3.24039      3.23978         0.000940     -0.002216     -0.003576
      3.24279      0.00249      3.23938        -0.002452      0.000519      0.001241
      3.24107      3.24053      6.47722         0.003424     -0.001295     -0.000555
      3.24302      3.23955     -0.00149        -0.003540      0.001604      0.000863
      3.24139      6.48077      3.24046         0.002305     -0.000783     -0.001676
      6.48175      3.24024      3.23846        -0.000705      0.002348      0.003291
      6.48090      6.48194      6.47794         0.001437     -0.003563     -0.002251
    total drift:                                0.000000     -0.000000     -0.000000

  ML FREE ENERGIE OF THE ION-ELECTRON SYSTEM (eV)
  free  energy ML TOTEN  =       -66.05386802 eV

  ML energy  without entropy=      -66.05386802  ML energy(sigma->0) =      -66.05386802