 vasp.6.3.0 20Jan22 (build Feb 21 2022 11:18:28) complex
 executed on       CrayXC_GCC_OMP date 2023.10.04  23:14:52

 INCAR:
   NWRITE = 2        (Medium-level output)
   ISTART = 1        (Read existing wavefunction
   INIWAV = 1        (Random initial wavefunction
   ICORELEVEL = 1    (Print core levels)
   LPLANE = TRUE (Real space distribution
   NCORE = 16     (how many cores share the work on an individual orbital)
   PREC = Accurate  (Precision level)
   LREAL = .FALSE. (Accurate forces
   ALGO = FAST      (SCF minimisation algorithm
   ENMAX = 600.00 eV (Plane-wave cutoff)
   NELM = 500     (Max SCF steps)
   NELMIN = 5        (Min SCF steps)
   EDIFF = 1E-08     (SCF energy convergence
   ISPIN = 1        (Closed shell DFT)
   GGA = PS     (PBEsol exchange-correlation)
   ADDGRID = TRUE  (Increase grid
   EDIFFG = -1E-07    (Ionic convergence
   NSW = 0     (Max ionic steps
   NBLOCK = 1     (Update XDATCAR, DOSCAR every NBLOCK steps)
   IBRION = 2     (Algorithm: 0-MD
   ISIF = 2     (Stress/relaxation: 2-Ions, 3-Shape/Ions/V, 7-Vol)
   ISYM = 2     (Symmetry: 0\=none
   2 = GGA
   3 = hybrids)
   ISMEAR = 0     (Gaussian smearing
   SIGMA = 0.01  (Smearing value in eV
   LORBIT = 11     (PAW radii for projected DOS)
   NEDOS = 1000    (DOSCAR points)
   LMAXMIX = 4       (Mixing cut-off

 POTCAR:    PAW_PBE Si 05Jan2001
 POTCAR:    PAW_PBE Si 05Jan2001
   VRHFIN =Si: s2p2

   TITEL  = PAW_PBE Si 05Jan2001
   POMASS =   28.085; ZVAL   =    4.000    mass and valenz
   ENMAX  =  245.345; ENMIN  =  184.009 eV

  PAW_PBE Si 05Jan2001                  :

 POSCAR: generated by phonopy
  positions in direct lattice
  velocities in cartesian coordinates
 exchange correlation table for  LEXCH =       14
   RHO(1)=    0.500       N(1)  =     2000
   RHO(2)=  100.500       N(2)  =     4000

 ion  position               nearest neighbor table
   1  0.125  0.125  0.125-   9 2.35  10 2.35  11 2.35  13 2.35
   2  0.625  0.125  0.125-   9 2.35  10 2.35  12 2.35  14 2.35
   3  0.125  0.625  0.125-   9 2.35  11 2.35  12 2.35  15 2.35
   4  0.625  0.625  0.125-  10 2.35  11 2.35  12 2.35  16 2.35
   5  0.125  0.125  0.625-   9 2.35  13 2.35  14 2.35  15 2.35
   6  0.625  0.125  0.625-  10 2.35  13 2.35  14 2.35  16 2.35
   7  0.125  0.625  0.625-  11 2.35  13 2.35  15 2.35  16 2.35
   8  0.625  0.625  0.625-  12 2.35  14 2.35  15 2.35  16 2.35
   9  0.000  0.000  0.000-   1 2.35   2 2.35   3 2.35   5 2.35
  10  0.500  0.000  0.000-   1 2.35   2 2.35   4 2.35   6 2.35
  11  0.000  0.500  0.000-   1 2.35   3 2.35   4 2.35   7 2.35
  12  0.500  0.500  0.000-   2 2.35   3 2.35   4 2.35   8 2.35
  13  0.000  0.000  0.500-   1 2.35   5 2.35   6 2.35   7 2.35
  14  0.500  0.000  0.500-   2 2.35   5 2.35   6 2.35   8 2.35
  15  0.000  0.500  0.500-   3 2.35   5 2.35   7 2.35   8 2.35
  16  0.500  0.500  0.500-   4 2.35   6 2.35   7 2.35   8 2.35

  LATTYP: Found a face centered cubic cell.
 ALAT       =    10.8716235991

  Lattice vectors:

 A1 = (   0.0000000000,   5.4358117995,   5.4358117995)
 A2 = (   5.4358117995,   0.0000000000,   5.4358117995)
 A3 = (   5.4358117995,   5.4358117995,   0.0000000000)

Analysis of symmetry for initial positions (statically):
 Subroutine PRICEL returns following result:

[...]

   8 primitive cells build up your supercell.

 Routine SETGRP: Setting up the symmetry group for a
 face centered cubic supercell.

 Subroutine GETGRP returns: Found 48 space group operations
 (whereof 24 operations were pure point group operations)
 out of a pool of 48 trial point group operations.

The static configuration has the point symmetry T_d .
 The point group associated with its full space group is O_h .

Analysis of symmetry for dynamics (positions and initial velocities):
 Subroutine PRICEL returns following result:

  LATTYP: Found a face centered cubic cell.
 ALAT       =     5.4358117995

  Lattice vectors:

 A1 = (   0.0000000000,   2.7179058998,   2.7179058998)
 A2 = (   2.7179058998,   0.0000000000,   2.7179058998)
 A3 = (   2.7179058998,   2.7179058998,   0.0000000000)

   8 primitive cells build up your supercell.

 Routine SETGRP: Setting up the symmetry group for a
 face centered cubic supercell.

 Subroutine GETGRP returns: Found 48 space group operations
 (whereof 24 operations were pure point group operations)
 out of a pool of 48 trial point group operations.

The dynamic configuration has the point symmetry T_d .
 The point group associated with its full space group is O_h .

 Subroutine INISYM returns: Found 48 space group operations
 (whereof 24 operations are pure point group operations),
 and found     8 'primitive' translations

                                     Primitive cell

  volume of cell :      40.1544

  direct lattice vectors                    reciprocal lattice vectors
     0.000000000  2.717905900  2.717905900    -0.183965162  0.183965162  0.183965162
     2.717905900  0.000000000  2.717905900     0.183965162 -0.183965162  0.183965162
     2.717905900  2.717905900  0.000000000     0.183965162  0.183965162 -0.183965162

  length of vectors
     3.843699385  3.843699385  3.843699385     0.318637008  0.318637008  0.318637008

  position of ions in fractional coordinates (direct lattice)
     0.250000000  0.250000000  0.250000000
     0.000000000  0.000000000  0.000000000

  ion indices of the primitive-cell ions
   primitive index   ion index
                 1           1
                 2           9

 KPOINTS: Regular k-point mesh

Automatic generation of k-mesh.
 Grid dimensions read from file:
 generate k-points for:    6    6    6

 Generating k-lattice:

  Cartesian coordinates                     Fractional coordinates (reciprocal lattice)
    -0.015330430  0.015330430  0.015330430     0.166666667  0.000000000 -0.000000000
     0.015330430 -0.015330430  0.015330430     0.000000000  0.166666667  0.000000000
     0.015330430  0.015330430 -0.015330430    -0.000000000 -0.000000000  0.166666667

  Length of vectors
     0.026553084  0.026553084  0.026553084

  Shift w.r.t. Gamma in fractional coordinates (k-lattice)
     0.000000000  0.000000000  0.000000000

 Subroutine IBZKPT returns following result:

 Found     16 irreducible k-points:

 Following reciprocal coordinates:
            Coordinates               Weight
  0.000000  0.000000  0.000000      1.000000
  0.166667  0.000000  0.000000      8.000000
  0.333333  0.000000  0.000000      8.000000
  0.500000  0.000000  0.000000      4.000000
  0.166667  0.166667  0.000000      6.000000
  0.333333  0.166667  0.000000     24.000000
  0.500000  0.166667  0.000000     24.000000
 -0.333333  0.166667  0.000000     24.000000
 -0.166667  0.166667  0.000000     12.000000
  0.333333  0.333333  0.000000      6.000000
  0.500000  0.333333  0.000000     24.000000
 -0.333333  0.333333  0.000000     12.000000
  0.500000  0.500000  0.000000      3.000000
  0.500000  0.333333  0.166667     24.000000
 -0.333333  0.333333  0.166667     24.000000
 -0.333333  0.500000  0.166667     12.000000

 Following cartesian coordinates:
            Coordinates               Weight
  0.000000  0.000000  0.000000      1.000000
 -0.015330  0.015330  0.015330      8.000000
 -0.030661  0.030661  0.030661      8.000000
 -0.045991  0.045991  0.045991      4.000000
  0.000000  0.000000  0.030661      6.000000
 -0.015330  0.015330  0.045991     24.000000
 -0.030661  0.030661  0.061322     24.000000
  0.045991 -0.045991 -0.015330     24.000000
  0.030661 -0.030661  0.000000     12.000000
  0.000000  0.000000  0.061322      6.000000
 -0.015330  0.015330  0.076652     24.000000
  0.061322 -0.061322  0.000000     12.000000
  0.000000  0.000000  0.091983      3.000000
  0.000000  0.030661  0.061322     24.000000
  0.076652 -0.045991 -0.015330     24.000000
  0.091983 -0.061322  0.000000     12.000000

 SYSTEM =  unknown system
 POSCAR =  generated by phonopy

 Startparameter for this run:
   NWRITE =      2    write-flag & timer
   PREC   = accura    normal or accurate (medium, high low for compatibility)
   ISTART =      0    job   : 0-new  1-cont  2-samecut
   ICHARG =      2    charge: 1-file 2-atom 10-const
   ISPIN  =      1    spin polarized calculation?
   LNONCOLLINEAR =      F non collinear calculations
   LSORBIT =      F    spin-orbit coupling
   INIWAV =      1    electr: 0-lowe 1-rand  2-diag
   LASPH  =      F    aspherical Exc in radial PAW
 Electronic Relaxation 1
   ENCUT  =  600.0 eV  44.10 Ry    6.64 a.u.  15.35 15.35 15.35*2*pi/ulx,y,z
   ENINI  =  600.0     initial cutoff
   ENAUG  =  322.1 eV  augmentation charge cutoff
   NELM   =    500;   NELMIN=  5; NELMDL=  0     # of ELM steps
   EDIFF  = 0.1E-07   stopping-criterion for ELM
   LREAL  =      F    real-space projection
   NLSPLINE    = F    spline interpolate recip. space projectors
   LCOMPAT=      F    compatible to vasp.4.4
   GGA_COMPAT  = T    GGA compatible to vasp.4.4-vasp.4.6
   LMAXPAW     = -100 max onsite density
   LMAXMIX     =    4 max onsite mixed and CHGCAR
   VOSKOWN=      0    Vosko Wilk Nusair interpolation
   ROPT   =    0.00000
 Ionic relaxation
   EDIFFG = -.1E-06   stopping-criterion for IOM
   NSW    =      0    number of steps for IOM
   NBLOCK =      1;   KBLOCK =      1    inner block; outer block
   IBRION =     -1    ionic relax: 0-MD 1-quasi-New 2-CG
   NFREE  =      1    steps in history (QN), initial steepest desc. (CG)
   ISIF   =      2    stress and relaxation
   IWAVPR =     10    prediction:  0-non 1-charg 2-wave 3-comb
   ISYM   =      2    0-nonsym 1-usesym 2-fastsym
   LCORR  =      T    Harris-Foulkes like correction to forces

   POTIM  = 0.5000    time-step for ionic-motion
   TEIN   =    0.0    initial temperature
   TEBEG  =    0.0;   TEEND  =   0.0 temperature during run
   SMASS  =  -3.00    Nose mass-parameter (am)
   estimated Nose-frequenzy (Omega)   =  0.10E-29 period in steps = 0.13E+47 mass=  -0.135E-26a.u.
   SCALEE = 1.0000    scale energy and forces
   NPACO  =    256;   APACO  = 10.0  distance and # of slots for P.C.
   PSTRESS=    0.0 pullay stress

  Mass of Ions in am
   POMASS =  28.09
  Ionic Valenz
   ZVAL   =   4.00
  Atomic Wigner-Seitz radii
  virtual crystal weights
   VCA    =   1.00
   NELECT =      64.0000    total number of electrons
   NUPDOWN=      -1.0000    fix difference up-down

 DOS related values:
   EMIN   =  10.00;   EMAX   =-10.00  energy-range for DOS
   EFERMI =   0.00
   ISMEAR =     0;   SIGMA  =   0.01  broadening in eV -4-tet -1-fermi 0-gaus

 Electronic relaxation 2 (details)
   IALGO  =     68    algorithm
   LDIAG  =      T    sub-space diagonalisation (order eigenvalues)
   LSUBROT=      F    optimize rotation matrix (better conditioning)
   TURBO    =      0    0=normal 1=particle mesh
   IRESTART =      0    0=no restart 2=restart with 2 vectors
   NREBOOT  =      0    no. of reboots
   NMIN     =      0    reboot dimension
   EREF     =   0.00    reference energy to select bands
   IMIX   =      4    mixing-type and parameters
     AMIX     =   0.40;   BMIX     =  1.00
     AMIX_MAG =   1.60;   BMIX_MAG =  1.00
     AMIN     =   0.10
     WC   =   100.;   INIMIX=   1;  MIXPRE=   1;  MAXMIX= -45

 Intra band minimization:
[...]
 k-point   2 :   0.1667 0.0000 0.0000  plane waves:   10765
 k-point   3 :   0.3333 0.0000 0.0000  plane waves:   10699
 k-point   4 :   0.5000 0.0000 0.0000  plane waves:   10730
 k-point   5 :   0.1667 0.1667 0.0000  plane waves:   10742
 k-point   6 :   0.3333 0.1667 0.0000  plane waves:   10709
 k-point   7 :   0.5000 0.1667 0.0000  plane waves:   10712
 k-point   8 :  -0.3333 0.1667 0.0000  plane waves:   10727
 k-point   9 :  -0.1667 0.1667 0.0000  plane waves:   10739
 k-point  10 :   0.3333 0.3333 0.0000  plane waves:   10742
 k-point  11 :   0.5000 0.3333 0.0000  plane waves:   10717
 k-point  12 :  -0.3333 0.3333 0.0000  plane waves:   10692
 k-point  13 :   0.5000 0.5000 0.0000  plane waves:   10718
 k-point  14 :   0.5000 0.3333 0.1667  plane waves:   10739
 k-point  15 :  -0.3333 0.3333 0.1667  plane waves:   10706
 k-point  16 :  -0.3333 0.5000 0.1667  plane waves:   10712

 maximum and minimum number of plane-waves per node :       695      655

 maximum number of plane-waves:     10777
 maximum index in each direction:
   IXMAX=   15   IYMAX=   15   IZMAX=   15
   IXMIN=  -15   IYMIN=  -15   IZMIN=  -15

 parallel 3D FFT for wavefunctions:
    minimum data exchange during FFTs selected (reduces bandwidth)
 parallel 3D FFT for charge:
    minimum data exchange during FFTs selected (reduces bandwidth)

 Broyden mixing: mesh for mixing (old mesh)
   NGX = 31   NGY = 31   NGZ = 31
  (NGX  =128   NGY  =128   NGZ  =128)
  gives a total of  29791 points

 initial charge density was supplied:
 charge density of overlapping atoms calculated
 number of electron      64.0000000 magnetization
 keeping initial charge density in first step

 Maximum index for augmentation-charges         3931 (set IRDMAX)

 First call to EWALD:  gamma=   0.259
 Maximum number of real-space cells 3x 3x 3
 Maximum number of reciprocal cells 3x 3x 3

--------------------------------------- Iteration      1(   1)  ---------------------------------------

 eigenvalue-minimisations  :  1536
 total energy-change (2. order) : 0.1545921E+03  (-0.2617462E+04)
 number of electron      64.0000000 magnetization
 augmentation part       64.0000000 magnetization

 Free energy of the ion-electron system (eV)
  alpha Z        PSCENC =        26.82694619
  Ewald energy   TEWEN  =     -1826.55336167
  -Hartree energ DENC   =       -88.39437999
  -exchange      EXHF   =         0.00000000
  -V(xc)+E(xc)   XCENC  =      -139.73341060
  PAW double counting   =      1399.65656354    -1123.04461034
  entropy T*S    EENTRO =        -0.00054793
  eigenvalues    EBANDS =       264.62296490
  atomic energy  EATOM  =      1641.21197842
  Solvation  Ediel_sol  =         0.00000000
  free energy    TOTEN  =       154.59214253 eV

  energy without entropy =      154.59269046  energy(sigma->0) =      154.59241649

[...]

 eigenvalue-minimisations  :  1872
 total energy-change (2. order) :-0.2339930E+03  (-0.2153100E+03)
 number of electron      64.0000000 magnetization
 augmentation part       64.0000000 magnetization

[...]

 Broyden mixing:
  rms(total) = 0.14014E+01    rms(broyden)= 0.14014E+01
  rms(prec ) = 0.17993E+01
  weight for this iteration     100.00

[...]

 eigenvalues of (default mixing * dielectric matrix)
  average eigenvalue GAMMA=   2.4979
  2.4979

[...]

 eigenvalue-minimisations  :  1405
 total energy-change (2. order) : 0.1765602E-07  (-0.2186266E-08)
 number of electron      64.0000000 magnetization
 augmentation part       -3.6643140 magnetization

[...]

 Broyden mixing:
  rms(total) = 0.22274E-04    rms(broyden)= 0.22138E-04
  rms(prec ) = 0.22712E-04
  weight for this iteration     100.00

 eigenvalues of (default mixing * dielectric matrix)
  average eigenvalue GAMMA=   1.6261
  3.1647  3.1647  2.6576  2.6576  2.6865  2.3328  0.9648  0.9648  1.2395  1.2395
  1.0788  0.9178  0.9178  0.6687  0.6809  0.6809

[...]

--------------------------------------- Iteration      1(  22)  ---------------------------------------

 eigenvalue-minimisations  :   795
 total energy-change (2. order) :-0.4599315E-08  (-0.7812801E-10)
 number of electron      64.0000000 magnetization
 augmentation part       -3.6643073 magnetization

 Free energy of the ion-electron system (eV)
  alpha Z        PSCENC =        26.82694619
  Ewald energy   TEWEN  =     -1826.55336167
  -Hartree energ DENC   =      -117.12729693
  -exchange      EXHF   =         0.00000000
  -V(xc)+E(xc)   XCENC  =      -134.89721550
  PAW double counting   =      6908.02252220    -6633.10938007
  entropy T*S    EENTRO =        -0.00000000
  eigenvalues    EBANDS =        43.67995067
  atomic energy  EATOM  =      1641.21197842
  Solvation  Ediel_sol  =         0.00000000
  free energy    TOTEN  =       -91.94585669 eV

  energy without entropy =      -91.94585669  energy(sigma->0) =      -91.94585669

 the core state eigenenergies are
   1-  1s  -1773.9810  2s   -127.9901  2p    -84.0139
   2-  1s  -1773.9810  2s   -127.9901  2p    -84.0139
   3-  1s  -1773.9810  2s   -127.9901  2p    -84.0139
   4-  1s  -1773.9810  2s   -127.9901  2p    -84.0139
   5-  1s  -1773.9810  2s   -127.9901  2p    -84.0139
   6-  1s  -1773.9810  2s   -127.9901  2p    -84.0139
   7-  1s  -1773.9810  2s   -127.9901  2p    -84.0139
   8-  1s  -1773.9810  2s   -127.9901  2p    -84.0139
   9-  1s  -1773.9810  2s   -127.9901  2p    -84.0139
  10-  1s  -1773.9810  2s   -127.9901  2p    -84.0139
  11-  1s  -1773.9810  2s   -127.9901  2p    -84.0139
  12-  1s  -1773.9810  2s   -127.9901  2p    -84.0139
  13-  1s  -1773.9810  2s   -127.9901  2p    -84.0139
  14-  1s  -1773.9810  2s   -127.9901  2p    -84.0139
  15-  1s  -1773.9810  2s   -127.9901  2p    -84.0139
  16-  1s  -1773.9810  2s   -127.9901  2p    -84.0139

 E-fermi :   5.8042     XC(G=0):  -9.5428     alpha+bet :-11.9461

 Fermi energy:         5.8041564625

 k-point     1 :       0.0000    0.0000    0.0000
  band No.  band energies     occupation
      1      -6.2095      2.00000
      2      -3.8669      2.00000
      3      -3.8669      2.00000
      4      -3.8669      2.00000
      5      -3.8669      2.00000
      6      -2.0590      2.00000
      7      -2.0590      2.00000
      8      -2.0590      2.00000
      9      -2.0590      2.00000
     10      -2.0590      2.00000
     11      -2.0590      2.00000
     12      -1.2403      2.00000
     13      -1.2403      2.00000
     14      -1.2403      2.00000
     15      -1.2403      2.00000
     16       2.8944      2.00000
     17       2.8944      2.00000
     18       2.8944      2.00000
     19       2.8944      2.00000
     20       2.8944      2.00000
     21       2.8944      2.00000
     22       4.5603      2.00000
     23       4.5603      2.00000
     24       4.5603      2.00000
     25       4.5603      2.00000
     26       4.5603      2.00000
     27       4.5603      2.00000
     28       4.5603      2.00000
     29       4.5603      2.00000
     30       5.7613      2.00000
     31       5.7613      2.00000
     32       5.7613      2.00000
     33       6.3562      0.00000
     34       6.3562      0.00000
     35       6.3562      0.00000
     36       6.3562      0.00000
     37       6.3562      0.00000
     38       6.3562      0.00000
     39       7.2171      0.00000
     40       7.2171      0.00000
     41       7.2171      0.00000
     42       7.2171      0.00000
     43       8.2776      0.00000
     44       8.2776      0.00000
     45       8.2776      0.00000
     46       9.0357      0.00000
     47       9.0357      0.00000
     48       9.0494      0.00000

[...]

 k-point    16 :      -0.3333    0.5000    0.1667
  band No.  band energies     occupation
      1      -5.0152      2.00000
      2      -5.0152      2.00000
      3      -4.6877      2.00000
      4      -4.6877      2.00000
      5      -3.4704      2.00000
      6      -3.4704      2.00000
      7      -2.6822      2.00000
      8      -2.6822      2.00000
      9      -1.1595      2.00000
     10      -1.1595      2.00000
     11      -0.4611      2.00000
     12      -0.4611      2.00000
     13       1.0658      2.00000
     14       1.0658      2.00000
     15       1.5057      2.00000
     16       1.5057      2.00000
     17       1.5651      2.00000
     18       1.5651      2.00000
     19       1.8360      2.00000
     20       1.8360      2.00000
     21       2.6270      2.00000
     22       2.6270      2.00000
     23       2.6493      2.00000
     24       2.6493      2.00000
     25       3.4071      2.00000
     26       3.4071      2.00000
     27       3.6671      2.00000
     28       3.6671      2.00000
     29       4.1226      2.00000
     30       4.1226      2.00000
     31       4.4799      2.00000
     32       4.4799      2.00000
     33       7.4698      0.00000
     34       7.4698      0.00000
     35       8.2009      0.00000
     36       8.2009      0.00000
     37       8.9046      0.00000
     38       8.9046      0.00000
     39       8.9969      0.00000
     40       8.9969      0.00000
     41       9.0564      0.00000
     42       9.0564      0.00000
     43       9.1885      0.00000
     44       9.1885      0.00000
     45      10.1543      0.00000
     46      10.1564      0.00000
     47      10.3358      0.00000
     48      10.3684      0.00000

 soft charge-density along one line, spin component           1
         0         1         2         3         4         5         6         7         8         9
 total charge-density along one line

------------------------ aborting loop because EDIFF is reached ----------------------------------------

 total charge

# of ion       s       p       d       tot
    1        0.752   0.937   0.000   1.689
    2        0.752   0.937   0.000   1.689
    3        0.752   0.937   0.000   1.689
    4        0.752   0.937   0.000   1.689
    5        0.752   0.937   0.000   1.689
    6        0.752   0.937   0.000   1.689
    7        0.752   0.937   0.000   1.689
    8        0.752   0.937   0.000   1.689
    9        0.752   0.937   0.000   1.689
   10        0.752   0.937   0.000   1.689
   11        0.752   0.937   0.000   1.689
   12        0.752   0.937   0.000   1.689
   13        0.752   0.937   0.000   1.689
   14        0.752   0.937   0.000   1.689
   15        0.752   0.937   0.000   1.689
   16        0.752   0.937   0.000   1.689
tot         12.037  14.985   0.000  27.021

  FORCE on cell =-STRESS in cart. coord.  units (eV):
  Direction    XX          YY          ZZ          XY          YZ          ZX
  Alpha Z    26.82695    26.82695    26.82695
  Ewald    -608.85308  -608.85308  -608.85308    -0.00000    -0.00000     0.00000
  Hartree    39.04244    39.04244    39.04244     0.00000     0.00000     0.00000
  E(xc)    -204.26634  -204.26634  -204.26634     0.00000     0.00000     0.00000
  Local    -232.55250  -232.55250  -232.55250     0.00003     0.00003     0.00003
  n-local   623.93658   626.85489   610.81181     6.01031    -4.34886     3.17109
  augment   -92.13481   -92.13481   -92.13481    -0.00002    -0.00002    -0.00002
  Kinetic   456.29415   459.98456   437.91710    10.42221    -7.27133     5.19158
  Fock        0.00000     0.00000     0.00000     0.00000     0.00000     0.00000
  Total      -0.00433    -0.00433    -0.00433    -0.00000    -0.00000     0.00000
  in kB      -0.02157    -0.02157    -0.02157    -0.00000    -0.00000     0.00000

 VOLUME and BASIS-vectors are now :
  energy-cutoff  :      600.00
  volume of cell :      321.24
      direct lattice vectors                 reciprocal lattice vectors
     0.000000000  5.435811800  5.435811800    -0.091982581  0.091982581  0.091982581
     5.435811800  0.000000000  5.435811800     0.091982581 -0.091982581  0.091982581
     5.435811800  5.435811800  0.000000000     0.091982581  0.091982581 -0.091982581

  length of vectors
     7.687398769  7.687398769  7.687398769     0.159318504  0.159318504  0.159318504

 FORCES acting on ions
    electron-ion (+dipol)            ewald-force                    non-local-force                 convergence-correction
   -.789E-08 -.789E-08 -.770E-08   0.122E-13 -.124E-13 -.204E-13   0.838E-16 0.616E-16 0.746E-16   -.133E-10 -.133E-10 -.133E-10
   -.789E-08 -.789E-08 -.770E-08   0.131E-13 -.127E-13 -.207E-13   0.171E-16 0.896E-16 0.693E-16   -.133E-10 -.133E-10 -.133E-10
   -.789E-08 -.789E-08 -.770E-08   0.133E-13 -.104E-13 -.175E-13   0.698E-16 0.438E-16 0.345E-16   -.133E-10 -.133E-10 -.133E-10
   -.789E-08 -.789E-08 -.770E-08   0.142E-13 -.107E-13 -.142E-13   0.831E-16 0.453E-16 0.450E-16   -.133E-10 -.133E-10 -.133E-10
   -.789E-08 -.789E-08 -.770E-08   0.135E-13 -.955E-14 -.167E-13   0.632E-16 0.554E-16 0.633E-16   -.133E-10 -.133E-10 -.133E-10
   -.789E-08 -.789E-08 -.770E-08   0.142E-13 -.711E-14 -.178E-13   0.772E-16 0.642E-16 0.130E-16   -.133E-10 -.133E-10 -.133E-10
   -.789E-08 -.789E-08 -.770E-08   0.142E-13 -.107E-13 -.213E-13   0.707E-16 0.334E-16 0.507E-16   -.133E-10 -.133E-10 -.133E-10
   -.789E-08 -.789E-08 -.770E-08   0.142E-13 -.142E-13 -.178E-13   0.777E-16 0.486E-16 0.594E-16   -.133E-10 -.133E-10 -.133E-10
   0.789E-08 0.789E-08 0.770E-08   -.121E-13 0.124E-13 0.192E-13   -.840E-16 -.589E-16 -.734E-16   0.133E-10 0.133E-10 0.133E-10
   0.789E-08 0.789E-08 0.770E-08   -.132E-13 0.121E-13 0.204E-13   -.181E-16 -.953E-16 -.737E-16   0.133E-10 0.133E-10 0.133E-10
   0.789E-08 0.789E-08 0.770E-08   -.129E-13 0.991E-14 0.167E-13   -.694E-16 -.421E-16 -.346E-16   0.133E-10 0.133E-10 0.133E-10
   0.789E-08 0.789E-08 0.770E-08   -.135E-13 0.100E-13 0.148E-13   -.859E-16 -.486E-16 -.515E-16   0.133E-10 0.133E-10 0.133E-10
   0.789E-08 0.789E-08 0.770E-08   -.148E-13 0.972E-14 0.158E-13   -.593E-16 -.567E-16 -.588E-16   0.133E-10 0.133E-10 0.133E-10
   0.789E-08 0.789E-08 0.770E-08   -.152E-13 0.719E-14 0.183E-13   -.759E-16 -.646E-16 -.172E-16   0.133E-10 0.133E-10 0.133E-10
   0.789E-08 0.789E-08 0.770E-08   -.147E-13 0.144E-13 0.213E-13   -.675E-16 -.250E-16 -.614E-16   0.133E-10 0.133E-10 0.133E-10
   0.789E-08 0.789E-08 0.770E-08   -.148E-13 0.138E-13 0.223E-13   -.719E-16 -.511E-16 -.563E-16   0.133E-10 0.133E-10 0.133E-10
   0.874E-12 -.219E-12 -.493E-13   -.201E-14 0.179E-14 0.247E-14   0.105E-16 -.389E-18 -.171E-16   0.271E-14 -.893E-14 -.272E-13

 POSITION                                       TOTAL-FORCE (eV/Angst)
      1.35895      1.35895      1.35895        -0.000000     -0.000000      0.000000
      1.35895      4.07686      4.07686        -0.000000      0.000000      0.000000
      4.07686      1.35895      4.07686        -0.000000     -0.000000      0.000000
      4.07686      4.07686      6.79476        -0.000000     -0.000000      0.000000
      4.07686      4.07686      1.35895        -0.000000     -0.000000     -0.000000
      4.07686      6.79476      4.07686        -0.000000     -0.000000      0.000000
      6.79476      4.07686      4.07686        -0.000000     -0.000000      0.000000
      6.79476      6.79476      6.79476        -0.000000     -0.000000      0.000000
      0.00000      0.00000      0.00000         0.000000      0.000000     -0.000000
      0.00000      2.71791      2.71791         0.000000      0.000000     -0.000000
      2.71791      0.00000      2.71791         0.000000      0.000000     -0.000000
      2.71791      2.71791      5.43581         0.000000     -0.000000     -0.000000
      2.71791      2.71791      0.00000         0.000000      0.000000      0.000000
      2.71791      5.43581      2.71791         0.000000      0.000000     -0.000000
      5.43581      2.71791      2.71791         0.000000      0.000000     -0.000000
      5.43581      5.43581      5.43581         0.000000      0.000000     -0.000000
    total drift:                                0.000000     -0.000000     -0.000000

  FREE ENERGIE OF THE ION-ELECTRON SYSTEM (eV)
  free  energy   TOTEN  =       -91.94585669 eV

  energy  without entropy=      -91.94585669  energy(sigma->0) =      -91.94585669

 writing wavefunctions

 total charge

# of ion       s       p       d       tot
    1        0.752   0.937   0.000   1.689
    2        0.752   0.937   0.000   1.689
    3        0.752   0.937   0.000   1.689
    4        0.752   0.937   0.000   1.689
    5        0.752   0.937   0.000   1.689
    6        0.752   0.937   0.000   1.689
    7        0.752   0.937   0.000   1.689
    8        0.752   0.937   0.000   1.689
    9        0.752   0.937   0.000   1.689
   10        0.752   0.937   0.000   1.689
   11        0.752   0.937   0.000   1.689
   12        0.752   0.937   0.000   1.689
   13        0.752   0.937   0.000   1.689
   14        0.752   0.937   0.000   1.689
   15        0.752   0.937   0.000   1.689
   16        0.752   0.937   0.000   1.689
tot         12.037  14.985   0.000  27.021