 vasp.6.3.0 20Jan22 (build Feb 21 2022 11:18:28) complex
 executed on       CrayXC_GCC_OMP date 2023.09.29  07:58:43

 INCAR:
   NWRITE = 2        (Medium-level output)
   ISTART = 1        (Read existing wavefunction
   INIWAV = 1        (Random initial wavefunction
   ICORELEVEL = 1    (Print core levels)
   LPLANE = TRUE (Real space distribution
   NCORE = 16     (how many cores share the work on an individual orbital)
   PREC = Accurate  (Precision level)
   LREAL = .FALSE. (Accurate forces
   ALGO = FAST      (SCF minimisation algorithm
   ENMAX = 600.00 eV (Plane-wave cutoff)
   NELM = 500     (Max SCF steps)
   NELMIN = 5        (Min SCF steps)
   EDIFF = 1E-08     (SCF energy convergence
   ISPIN = 1        (Closed shell DFT)
   GGA = PS     (PBEsol exchange-correlation)
   ADDGRID = TRUE  (Increase grid
   EDIFFG = -1E-07    (Ionic convergence
   NSW = 200         (Max ionic steps
   NBLOCK = 1     (Update XDATCAR, DOSCAR every NBLOCK steps)
   IBRION = 2     (Algorithm: 0-MD
   ISIF = 7     (Stress/relaxation: 2-Ions, 3-Shape/Ions/V, 7-Vol)
   ISYM = 2     (Symmetry: 0\=none
   2 = GGA
   3 = hybrids)
   ISMEAR = 0     (Gaussian smearing
   SIGMA = 0.01  (Smearing value in eV
   LORBIT = 11     (PAW radii for projected DOS)
   NEDOS = 1000    (DOSCAR points)
   LMAXMIX = 4       (Mixing cut-off
   ML_ISTART = 0
   ML_LMLFF = TRUE

 POTCAR:    PAW_PBE Pb_d 06Sep2000
 POTCAR:    PAW_PBE Te 08Apr2002
 POTCAR:    PAW_PBE Pb_d 06Sep2000
   VRHFIN =Pb:

   TITEL  = PAW_PBE Pb_d 06Sep2000
   POMASS =  207.200; ZVAL   =   14.000    mass and valenz
   ENMAX  =  237.835; ENMIN  =  178.376 eV

 POTCAR:    PAW_PBE Te 08Apr2002
   VRHFIN =Te: s2p4

   TITEL  = PAW_PBE Te 08Apr2002
   POMASS =  127.600; ZVAL   =    6.000    mass and valenz
   ENMAX  =  174.982; ENMIN  =  131.236 eV

  PAW_PBE Pb_d 06Sep2000                :
  PAW_PBE Te 08Apr2002                  :

 POSCAR: generated by phonopy
  positions in direct lattice
  velocities in cartesian coordinates
 exchange correlation table for  LEXCH =       14
   RHO(1)=    0.500       N(1)  =     2000
   RHO(2)=  100.500       N(2)  =     4000

 ion  position               nearest neighbor table
   1  0.250  0.250  0.250-  10 3.22  11 3.22  12 3.22  13 3.22  14 3.22  15 3.22
   2  0.750  0.250  0.250-   9 3.22  11 3.22  12 3.22  13 3.22  14 3.22  16 3.22
   3  0.250  0.750  0.250-   9 3.22  10 3.22  12 3.22  13 3.22  15 3.22  16 3.22
   4  0.750  0.750  0.250-   9 3.22  10 3.22  11 3.22  14 3.22  15 3.22  16 3.22
   5  0.250  0.250  0.750-   9 3.22  10 3.22  11 3.22  14 3.22  15 3.22  16 3.22
   6  0.750  0.250  0.750-   9 3.22  10 3.22  12 3.22  13 3.22  15 3.22  16 3.22
   7  0.250  0.750  0.750-   9 3.22  11 3.22  12 3.22  13 3.22  14 3.22  16 3.22
   8  0.750  0.750  0.750-  10 3.22  11 3.22  12 3.22  13 3.22  14 3.22  15 3.22
   9  0.000  0.000  0.000-   2 3.22   3 3.22   4 3.22   5 3.22   6 3.22   7 3.22
  10  0.500  0.000  0.000-   1 3.22   3 3.22   4 3.22   5 3.22   6 3.22   8 3.22
  11  0.000  0.500  0.000-   1 3.22   2 3.22   4 3.22   5 3.22   7 3.22   8 3.22
  12  0.500  0.500  0.000-   1 3.22   2 3.22   3 3.22   6 3.22   7 3.22   8 3.22
  13  0.000  0.000  0.500-   1 3.22   2 3.22   3 3.22   6 3.22   7 3.22   8 3.22
  14  0.500  0.000  0.500-   1 3.22   2 3.22   4 3.22   5 3.22   7 3.22   8 3.22
  15  0.000  0.500  0.500-   1 3.22   3 3.22   4 3.22   5 3.22   6 3.22   8 3.22
  16  0.500  0.500  0.500-   2 3.22   3 3.22   4 3.22   5 3.22   6 3.22   7 3.22

  LATTYP: Found a face centered cubic cell.
 ALAT       =    12.8850331928

  Lattice vectors:

 A1 = (   0.0000000000,   6.4425165964,   6.4425165964)
 A2 = (   6.4425165964,   0.0000000000,   6.4425165964)
 A3 = (   6.4425165964,   6.4425165964,   0.0000000000)

Analysis of symmetry for initial positions (statically):
 Subroutine PRICEL returns following result:

[...]

   8 primitive cells build up your supercell.

 Routine SETGRP: Setting up the symmetry group for a
 face centered cubic supercell.

 Subroutine GETGRP returns: Found 48 space group operations
 (whereof 48 operations were pure point group operations)
 out of a pool of 48 trial point group operations.

The static configuration has the point symmetry O_h .

Analysis of symmetry for dynamics (positions and initial velocities):
 Subroutine PRICEL returns following result:

  LATTYP: Found a face centered cubic cell.
 ALAT       =     6.4425165964

  Lattice vectors:

 A1 = (   0.0000000000,   3.2212582982,   3.2212582982)
 A2 = (   3.2212582982,   0.0000000000,   3.2212582982)
 A3 = (   3.2212582982,   3.2212582982,   0.0000000000)

   8 primitive cells build up your supercell.

 Routine SETGRP: Setting up the symmetry group for a
 face centered cubic supercell.

 Subroutine GETGRP returns: Found 48 space group operations
 (whereof 48 operations were pure point group operations)
 out of a pool of 48 trial point group operations.

The dynamic configuration has the point symmetry O_h .

 Subroutine INISYM returns: Found 48 space group operations
 (whereof 48 operations are pure point group operations),
 and found     8 'primitive' translations

                                     Primitive cell

  volume of cell :      66.8508

  direct lattice vectors                    reciprocal lattice vectors
     0.000000000  3.221258298  3.221258298    -0.155218847  0.155218847  0.155218847
     3.221258298  0.000000000  3.221258298     0.155218847 -0.155218847  0.155218847
     3.221258298  3.221258298  0.000000000     0.155218847  0.155218847 -0.155218847

  length of vectors
     4.555547173  4.555547173  4.555547173     0.268846930  0.268846930  0.268846930

  position of ions in fractional coordinates (direct lattice)
     0.500000000  0.500000000  0.500000000
     0.000000000  0.000000000  0.000000000

  ion indices of the primitive-cell ions
   primitive index   ion index
                 1           1
                 2           9

 KPOINTS: Regular k-point mesh

Automatic generation of k-mesh.
 Grid dimensions read from file:
 generate k-points for:    6    6    6

 Generating k-lattice:

  Cartesian coordinates                     Fractional coordinates (reciprocal lattice)
    -0.012934904  0.012934904  0.012934904     0.166666667 -0.000000000  0.000000000
     0.012934904 -0.012934904  0.012934904    -0.000000000  0.166666667 -0.000000000
     0.012934904  0.012934904 -0.012934904     0.000000000  0.000000000  0.166666667

  Length of vectors
     0.022403911  0.022403911  0.022403911

  Shift w.r.t. Gamma in fractional coordinates (k-lattice)
     0.000000000  0.000000000  0.000000000

 Subroutine IBZKPT returns following result:

 Found     16 irreducible k-points:

 Following reciprocal coordinates:
            Coordinates               Weight
  0.000000  0.000000  0.000000      1.000000
  0.166667  0.000000  0.000000      8.000000
  0.333333  0.000000  0.000000      8.000000
  0.500000  0.000000  0.000000      4.000000
  0.166667  0.166667  0.000000      6.000000
  0.333333  0.166667  0.000000     24.000000
  0.500000  0.166667  0.000000     24.000000
 -0.333333  0.166667  0.000000     24.000000
 -0.166667  0.166667  0.000000     12.000000
  0.333333  0.333333  0.000000      6.000000
  0.500000  0.333333  0.000000     24.000000
 -0.333333  0.333333  0.000000     12.000000
  0.500000  0.500000  0.000000      3.000000
  0.500000  0.333333  0.166667     24.000000
 -0.333333  0.333333  0.166667     24.000000
 -0.333333  0.500000  0.166667     12.000000

 Following cartesian coordinates:
            Coordinates               Weight
  0.000000  0.000000  0.000000      1.000000
 -0.012935  0.012935  0.012935      8.000000
 -0.025870  0.025870  0.025870      8.000000
 -0.038805  0.038805  0.038805      4.000000
  0.000000  0.000000  0.025870      6.000000
 -0.012935  0.012935  0.038805     24.000000
 -0.025870  0.025870  0.051740     24.000000
  0.038805 -0.038805 -0.012935     24.000000
  0.025870 -0.025870  0.000000     12.000000
  0.000000  0.000000  0.051740      6.000000
 -0.012935  0.012935  0.064675     24.000000
  0.051740 -0.051740  0.000000     12.000000
  0.000000  0.000000  0.077609      3.000000
  0.000000  0.025870  0.051740     24.000000
  0.064675 -0.038805 -0.012935     24.000000
  0.077609 -0.051740  0.000000     12.000000

 SYSTEM =  unknown system
 POSCAR =  generated by phonopy

 Startparameter for this run:
   NWRITE =      2    write-flag & timer
   PREC   = accura    normal or accurate (medium, high low for compatibility)
   ISTART =      0    job   : 0-new  1-cont  2-samecut
   ICHARG =      2    charge: 1-file 2-atom 10-const
   ISPIN  =      1    spin polarized calculation?
   LNONCOLLINEAR =      F non collinear calculations
   LSORBIT =      F    spin-orbit coupling
   INIWAV =      1    electr: 0-lowe 1-rand  2-diag
   LASPH  =      F    aspherical Exc in radial PAW
 Electronic Relaxation 1
   ENCUT  =  600.0 eV  44.10 Ry    6.64 a.u.  18.20 18.20 18.20*2*pi/ulx,y,z
   ENINI  =  600.0     initial cutoff
   ENAUG  =  391.9 eV  augmentation charge cutoff
   NELM   =    500;   NELMIN=  5; NELMDL=  0     # of ELM steps
   EDIFF  = 0.1E-07   stopping-criterion for ELM
   LREAL  =      F    real-space projection
   NLSPLINE    = F    spline interpolate recip. space projectors
   LCOMPAT=      F    compatible to vasp.4.4
   GGA_COMPAT  = T    GGA compatible to vasp.4.4-vasp.4.6
   LMAXPAW     = -100 max onsite density
   LMAXMIX     =    4 max onsite mixed and CHGCAR
   VOSKOWN=      0    Vosko Wilk Nusair interpolation
   ROPT   =    0.00000   0.00000
 Ionic relaxation
   EDIFFG = -.1E-06   stopping-criterion for IOM
   NSW    =    200    number of steps for IOM
   NBLOCK =      1;   KBLOCK =    200    inner block; outer block
   IBRION =      2    ionic relax: 0-MD 1-quasi-New 2-CG
   NFREE  =      1    steps in history (QN), initial steepest desc. (CG)
   ISIF   =      7    stress and relaxation
   IWAVPR =     11    prediction:  0-non 1-charg 2-wave 3-comb
   ISYM   =      2    0-nonsym 1-usesym 2-fastsym
   LCORR  =      T    Harris-Foulkes like correction to forces

   POTIM  = 0.5000    time-step for ionic-motion
   TEIN   =    0.0    initial temperature
   TEBEG  =    0.0;   TEEND  =   0.0 temperature during run
   SMASS  =  -3.00    Nose mass-parameter (am)
   estimated Nose-frequenzy (Omega)   =  0.10E-29 period in steps = 0.13E+47 mass=  -0.190E-26a.u.
   SCALEE = 1.0000    scale energy and forces
   NPACO  =    256;   APACO  = 10.0  distance and # of slots for P.C.
   PSTRESS=    0.0 pullay stress

  Mass of Ions in am
   POMASS = 207.20127.60
  Ionic Valenz
   ZVAL   =  14.00  6.00
  Atomic Wigner-Seitz radii
  virtual crystal weights
   VCA    =   1.00  1.00
   NELECT =     160.0000    total number of electrons
   NUPDOWN=      -1.0000    fix difference up-down

 DOS related values:
   EMIN   =  10.00;   EMAX   =-10.00  energy-range for DOS
   EFERMI =   0.00
   ISMEAR =     0;   SIGMA  =   0.01  broadening in eV -4-tet -1-fermi 0-gaus

 Electronic relaxation 2 (details)
   IALGO  =     68    algorithm
   LDIAG  =      T    sub-space diagonalisation (order eigenvalues)
   LSUBROT=      F    optimize rotation matrix (better conditioning)
[...]

[...]

 Broyden mixing:
  rms(total) = 0.17220E-03    rms(broyden)= 0.17153E-03
  rms(prec ) = 0.22433E-03
  weight for this iteration     100.00

 eigenvalues of (default mixing * dielectric matrix)
  average eigenvalue GAMMA=   1.3001
  2.6080  1.5390  1.5390  1.6825  1.6825  0.9304  0.6352  0.6352  0.4492

[...]

--------------------------------------- Iteration      2(  11)  ---------------------------------------

 eigenvalue-minimisations  :  1758
 total energy-change (2. order) :-0.9653377E-08  (-0.1201367E-08)
 number of electron     160.0000002 magnetization
 augmentation part       34.9292125 magnetization

 Free energy of the ion-electron system (eV)
  alpha Z        PSCENC =       290.76489736
  Ewald energy   TEWEN  =    -11145.61800700
  -Hartree energ DENC   =     -3990.66053240
  -exchange      EXHF   =         0.00000000
  -V(xc)+E(xc)   XCENC  =        92.06834751
  PAW double counting   =     14946.60137923   -14510.82346463
  entropy T*S    EENTRO =        -0.00000000
  eigenvalues    EBANDS =      -832.48314437
  atomic energy  EATOM  =     15084.07529148
  Solvation  Ediel_sol  =         0.00000000
  free energy    TOTEN  =       -66.07523282 eV

  energy without entropy =      -66.07523282  energy(sigma->0) =      -66.07523282

 the core state eigenenergies are
   1-  1s -88081.8228  2s -15743.3215  2p -13498.0843  3s  -3771.5709  3p  -3128.1084
       3d  -2473.1607  4s   -846.0948  4p   -635.3017  4d   -391.6889  4f   -122.7207
       5s   -133.8935  5p    -75.5902
   2-  1s -88081.8228  2s -15743.3215  2p -13498.0843  3s  -3771.5709  3p  -3128.1084
       3d  -2473.1607  4s   -846.0948  4p   -635.3017  4d   -391.6889  4f   -122.7207
       5s   -133.8935  5p    -75.5902
   3-  1s -88081.8228  2s -15743.3215  2p -13498.0843  3s  -3771.5709  3p  -3128.1084
       3d  -2473.1607  4s   -846.0948  4p   -635.3017  4d   -391.6889  4f   -122.7207
       5s   -133.8935  5p    -75.5902
   4-  1s -88081.8228  2s -15743.3215  2p -13498.0843  3s  -3771.5709  3p  -3128.1084
       3d  -2473.1607  4s   -846.0948  4p   -635.3017  4d   -391.6889  4f   -122.7207
       5s   -133.8935  5p    -75.5902
   5-  1s -88081.8228  2s -15743.3215  2p -13498.0843  3s  -3771.5709  3p  -3128.1084
       3d  -2473.1607  4s   -846.0948  4p   -635.3017  4d   -391.6889  4f   -122.7207
       5s   -133.8935  5p    -75.5902
   6-  1s -88081.8228  2s -15743.3215  2p -13498.0843  3s  -3771.5709  3p  -3128.1084
       3d  -2473.1607  4s   -846.0948  4p   -635.3017  4d   -391.6889  4f   -122.7207
       5s   -133.8935  5p    -75.5902
   7-  1s -88081.8228  2s -15743.3215  2p -13498.0843  3s  -3771.5709  3p  -3128.1084
       3d  -2473.1607  4s   -846.0948  4p   -635.3017  4d   -391.6889  4f   -122.7207
       5s   -133.8935  5p    -75.5902
   8-  1s -88081.8228  2s -15743.3215  2p -13498.0843  3s  -3771.5709  3p  -3128.1084
       3d  -2473.1607  4s   -846.0948  4p   -635.3017  4d   -391.6889  4f   -122.7207
       5s   -133.8935  5p    -75.5902
   9-  1s -31609.8126  2s  -4837.3890  2p  -4340.7856  3s   -953.5990  3p   -792.2569
       3d   -548.5076  4s   -153.0953  4p   -103.1340  4d    -30.4557
  10-  1s -31609.8126  2s  -4837.3890  2p  -4340.7856  3s   -953.5990  3p   -792.2569
       3d   -548.5076  4s   -153.0953  4p   -103.1340  4d    -30.4557
  11-  1s -31609.8126  2s  -4837.3890  2p  -4340.7856  3s   -953.5990  3p   -792.2569
       3d   -548.5076  4s   -153.0953  4p   -103.1340  4d    -30.4557
  12-  1s -31609.8126  2s  -4837.3890  2p  -4340.7856  3s   -953.5990  3p   -792.2569
       3d   -548.5076  4s   -153.0953  4p   -103.1340  4d    -30.4557
  13-  1s -31609.8126  2s  -4837.3890  2p  -4340.7856  3s   -953.5990  3p   -792.2569
       3d   -548.5076  4s   -153.0953  4p   -103.1340  4d    -30.4557
  14-  1s -31609.8126  2s  -4837.3890  2p  -4340.7856  3s   -953.5990  3p   -792.2569
       3d   -548.5076  4s   -153.0953  4p   -103.1340  4d    -30.4557
  15-  1s -31609.8126  2s  -4837.3890  2p  -4340.7856  3s   -953.5990  3p   -792.2569
       3d   -548.5076  4s   -153.0953  4p   -103.1340  4d    -30.4557
  16-  1s -31609.8126  2s  -4837.3890  2p  -4340.7856  3s   -953.5990  3p   -792.2569
       3d   -548.5076  4s   -153.0953  4p   -103.1340  4d    -30.4557

 E-fermi :   5.6295     XC(G=0):  -9.5095     alpha+bet :-10.9153

 Fermi energy:         5.6295310045

[...]

 k-point    16 :      -0.3333    0.5000    0.1667
  band No.  band energies     occupation
      1     -11.1120      2.00000
      2     -11.1120      2.00000
      3     -11.1012      2.00000
      4     -11.1012      2.00000
      5     -11.0945      2.00000
      6     -11.0945      2.00000
      7     -11.0898      2.00000
      8     -11.0898      2.00000
      9     -11.0762      2.00000
     10     -11.0762      2.00000
     11     -11.0744      2.00000
     12     -11.0744      2.00000
     13     -11.0723      2.00000
     14     -11.0723      2.00000
     15     -11.0664      2.00000
     16     -11.0664      2.00000
     17     -11.0611      2.00000
     18     -11.0611      2.00000
     19     -11.0561      2.00000
     20     -11.0561      2.00000
     21     -11.0497      2.00000
     22     -11.0497      2.00000
     23     -11.0494      2.00000
     24     -11.0494      2.00000
     25     -11.0489      2.00000
     26     -11.0489      2.00000
     27     -11.0470      2.00000
     28     -11.0470      2.00000
     29     -11.0447      2.00000
     30     -11.0447      2.00000
     31     -11.0445      2.00000
     32     -11.0445      2.00000
     33     -11.0437      2.00000
     34     -11.0437      2.00000
     35     -11.0435      2.00000
     36     -11.0435      2.00000
     37     -11.0377      2.00000
     38     -11.0377      2.00000
     39     -11.0322      2.00000
     40     -11.0322      2.00000
     41      -5.7669      2.00000
     42      -5.7669      2.00000
     43      -5.5617      2.00000
     44      -5.5617      2.00000
     45      -4.9350      2.00000
     46      -4.9350      2.00000
     47      -4.7157      2.00000
     48      -4.7157      2.00000
     49      -2.5881      2.00000
     50      -2.5881      2.00000
     51      -2.5434      2.00000
     52      -2.5434      2.00000
     53      -1.9781      2.00000
     54      -1.9781      2.00000
     55      -1.5174      2.00000
     56      -1.5174      2.00000
     57       1.7944      2.00000
     58       1.7944      2.00000
     59       2.0415      2.00000
     60       2.0415      2.00000
[...]
     82       7.0723      0.00000
     83       7.1194      0.00000
     84       7.1194      0.00000
     85       7.2637      0.00000
     86       7.2637      0.00000
     87       7.7402      0.00000
     88       7.7402      0.00000
     89       7.9723      0.00000
     90       7.9723      0.00000
     91       8.8771      0.00000
     92       8.8771      0.00000
     93       9.0742      0.00000
     94       9.0742      0.00000
     95       9.6131      0.00000
     96       9.6132      0.00000

 soft charge-density along one line, spin component           1
         0         1         2         3         4         5         6         7         8         9
 total charge-density along one line

------------------------ aborting loop because EDIFF is reached ----------------------------------------

 total charge

# of ion       s       p       d       tot
    1        1.448   0.588   9.832  11.868
    2        1.448   0.588   9.832  11.868
    3        1.448   0.588   9.832  11.868
    4        1.448   0.588   9.832  11.868
    5        1.448   0.588   9.832  11.868
    6        1.448   0.588   9.832  11.868
    7        1.448   0.588   9.832  11.868
    8        1.448   0.588   9.832  11.868
    9        1.376   1.988   0.019   3.384
   10        1.376   1.988   0.019   3.384
   11        1.376   1.988   0.019   3.384
   12        1.376   1.988   0.019   3.384
   13        1.376   1.988   0.019   3.384
   14        1.376   1.988   0.019   3.384
   15        1.376   1.988   0.019   3.384
   16        1.376   1.988   0.019   3.384
tot         22.594  20.613  78.807 122.014

  FORCE on cell =-STRESS in cart. coord.  units (eV):
  Direction    XX          YY          ZZ          XY          YZ          ZX
  Alpha Z   290.76490   290.76490   290.76490
  Ewald   -3715.21429 -3715.21429 -3715.21429     0.00000     0.00000     0.00000
  Hartree  1330.23185  1330.23185  1330.23185     0.00000     0.00000     0.00000
  E(xc)    -714.51553  -714.51553  -714.51553     0.00000     0.00000     0.00000
  Local    -942.27453  -942.27453  -942.27453     0.00009     0.00009     0.00009
  n-local  1428.38628  1429.09022  1427.93115    -0.50201    -0.08280     0.11871
  augment   769.22950   769.22950   769.22950    -0.00008    -0.00008    -0.00008
  Kinetic  1556.36828  1551.52627  1552.04094     4.60605    -4.44979     3.26332
  Fock        0.00000     0.00000     0.00000     0.00000     0.00000     0.00000
  Total       0.00294     0.00294     0.00294     0.00000     0.00000    -0.00000
  in kB       0.00881     0.00881     0.00881     0.00000     0.00000    -0.00000

 VOLUME and BASIS-vectors are now :
  energy-cutoff  :      600.00
  volume of cell :      534.96
      direct lattice vectors                 reciprocal lattice vectors
     0.000000000  6.443115068  6.443115068    -0.077602215  0.077602215  0.077602215
     6.443115068  0.000000000  6.443115068     0.077602215 -0.077602215  0.077602215
     6.443115068  6.443115068  0.000000000     0.077602215  0.077602215 -0.077602215

[...]

 FORCES acting on ions
    electron-ion (+dipol)            ewald-force                    non-local-force                 convergence-correction
   -.108E-11 0.197E-12 -.606E-12   0.421E-13 -.278E-13 -.309E-13   -.700E-24 -.493E-24 -.210E-23   0.186E-13 0.140E-12 0.747E-13
   0.827E-11 -.137E-11 0.958E-11   0.426E-13 -.260E-13 -.301E-13   0.405E-23 0.219E-23 0.428E-24   0.722E-13 0.206E-13 0.450E-14
   0.204E-11 0.482E-11 -.341E-11   0.411E-13 -.284E-13 -.292E-13   0.386E-23 0.141E-24 0.308E-23   0.398E-13 0.975E-13 0.998E-13
   -.126E-10 -.515E-11 -.484E-11   0.416E-13 -.266E-13 -.284E-13   -.247E-23 -.743E-23 0.125E-24   0.949E-13 0.259E-13 0.141E-13
   0.177E-11 -.299E-11 0.413E-11   0.434E-13 -.301E-13 -.284E-13   -.111E-23 0.427E-23 0.566E-23   0.242E-13 0.150E-12 0.602E-13
   -.795E-11 0.415E-11 -.691E-11   0.284E-13 -.284E-13 -.277E-13   0.385E-24 -.313E-23 -.169E-23   0.869E-13 0.353E-13 0.585E-14
   -.201E-11 -.140E-11 -.125E-11   0.426E-13 -.310E-13 -.277E-13   -.255E-23 -.462E-23 -.460E-24   0.615E-13 0.119E-12 0.960E-13
   0.926E-11 0.959E-11 0.224E-11   0.418E-13 -.294E-13 -.272E-13   0.522E-24 0.300E-23 -.208E-23   0.101E-12 0.292E-13 -.281E-14
   0.191E-13 0.526E-14 0.832E-14   -.430E-13 0.255E-13 0.297E-13   0.259E-25 -.711E-25 -.639E-25   -.480E-14 -.117E-13 -.139E-13
   0.167E-12 0.161E-12 0.121E-12   -.437E-13 0.250E-13 0.307E-13   0.233E-24 -.497E-24 0.297E-24   -.269E-13 0.182E-13 -.410E-14
   0.632E-13 0.764E-14 0.526E-13   -.417E-13 0.270E-13 0.286E-13   -.207E-24 0.383E-25 -.565E-24   0.121E-13 -.320E-13 -.254E-14
   -.362E-13 0.767E-12 0.104E-11   -.427E-13 0.264E-13 0.294E-13   -.192E-25 -.579E-25 -.263E-24   -.866E-14 0.541E-14 0.176E-13
   0.686E-13 0.551E-13 0.600E-14   -.420E-13 0.306E-13 0.275E-13   0.256E-24 0.276E-24 -.209E-24   0.244E-15 -.773E-14 -.202E-13
   0.374E-12 0.425E-12 0.621E-13   -.417E-13 0.300E-13 0.286E-13   -.600E-25 0.276E-24 0.365E-24   -.202E-13 0.244E-13 -.794E-14
   0.112E-12 0.571E-13 0.498E-13   -.416E-13 0.325E-13 0.274E-13   0.370E-24 -.198E-24 -.440E-24   0.179E-13 -.256E-13 -.702E-14
   -.665E-12 0.680E-12 0.703E-12   -.412E-13 0.317E-13 0.283E-13   0.153E-24 -.248E-24 0.154E-25   -.489E-14 0.102E-13 0.111E-13
   -.216E-11 0.100E-10 0.982E-12   -.140E-13 0.879E-15 0.463E-15   0.274E-23 -.656E-23 0.210E-23   0.464E-12 0.599E-12 0.325E-12

 POSITION                                       TOTAL-FORCE (eV/Angst)
      3.22156      3.22156      3.22156         0.000000      0.000000     -0.000000
      3.22156      6.44312      6.44312        -0.000000     -0.000000      0.000000
      6.44312      3.22156      6.44312        -0.000000      0.000000      0.000000
      6.44312      6.44312      9.66467        -0.000000     -0.000000     -0.000000
      6.44312      6.44312      3.22156         0.000000      0.000000      0.000000
      6.44312      9.66467      6.44312         0.000000      0.000000     -0.000000
      9.66467      6.44312      6.44312         0.000000      0.000000      0.000000
      9.66467      9.66467      9.66467        -0.000000     -0.000000      0.000000
      0.00000      0.00000      0.00000        -0.000000     -0.000000     -0.000000
      0.00000      3.22156      3.22156        -0.000000      0.000000     -0.000000
      3.22156      0.00000      3.22156        -0.000000      0.000000      0.000000
      3.22156      3.22156      6.44312        -0.000000      0.000000     -0.000000
      3.22156      3.22156      0.00000        -0.000000     -0.000000     -0.000000
      3.22156      6.44312      3.22156        -0.000000      0.000000     -0.000000
      6.44312      3.22156      3.22156        -0.000000     -0.000000      0.000000
      6.44312      6.44312      6.44312        -0.000000      0.000000     -0.000000
    total drift:                               -0.000000      0.000000      0.000000

  FREE ENERGIE OF THE ION-ELECTRON SYSTEM (eV)
  free  energy   TOTEN  =       -66.07523282 eV

  energy  without entropy=      -66.07523282  energy(sigma->0) =      -66.07523282

 d Force = 0.0000000E+00[ 0.000E+00, 0.000E+00]  d Energy = 0.4028398E-05-0.403E-05
 d Force = 0.0000000E+00[ 0.000E+00, 0.000E+00]  d Ewald  =-0.1035361E+01 0.104E+01

 Steepest descent step on ions:
 trial-energy change:   -0.000004  1 .order   -0.000005   -0.000009   -0.000001
  (g-gl).g = 0.859E-05      g.g   = 0.859E-05  gl.gl    = 0.000E+00
 g(Force)  = 0.000E+00   g(Stress)= 0.859E-05 ortho     = 0.000E+00
 gamma     =   0.00000
 trial     =   1.00000
 opt step  =   1.36608  (harmonic =   1.10554) maximal distance =0.00000000
 next E    =   -66.075233   (d E  =  -0.00000)

[...]

 reached required accuracy - stopping structural energy minimisation

  ML FORCE on cell =-STRESS in cart. coord. units (eV/cell)
  Direction    XX          YY          ZZ          XY          YZ          ZX
  Total:      0.00000     0.00000     0.00000     0.00000     0.00000     0.00000
  in kB       0.00000     0.00000     0.00000     0.00000     0.00000     0.00000

  Total+kin.     0.000       0.000       0.000       0.000       0.000       0.000
  volume of cell :      675.58
      direct lattice vectors                 reciprocal lattice vectors
     0.000000000  6.964360385  6.964360385    -0.071794102  0.071794102  0.071794102
     6.964360385  0.000000000  6.964360385     0.071794102 -0.071794102  0.071794102
     6.964360385  6.964360385  0.000000000     0.071794102  0.071794102 -0.071794102

  length of vectors
     9.849092910  9.849092910  9.849092910     0.124351032  0.124351032  0.124351032

  POSITION                                       TOTAL-FORCE (eV/Angst) (ML)
      3.48218      3.48218      3.48218        -0.000000     -0.000000     -0.000000
      3.48218      6.96436      6.96436        -0.000000      0.000000      0.000000
      6.96436      3.48218      6.96436         0.000000     -0.000000      0.000000
      6.96436      6.96436     10.44654         0.000000      0.000000     -0.000000
      6.96436      6.96436      3.48218        -0.000000     -0.000000     -0.000000
      6.96436     10.44654      6.96436        -0.000000     -0.000000     -0.000000
     10.44654      6.96436      6.96436        -0.000000     -0.000000     -0.000000
     10.44654     10.44654     10.44654         0.000000      0.000000      0.000000
      0.00000      0.00000      0.00000         0.000000      0.000000      0.000000
      0.00000      3.48218      3.48218         0.000000      0.000000     -0.000000
      3.48218      0.00000      3.48218         0.000000      0.000000     -0.000000
      3.48218      3.48218      6.96436         0.000000      0.000000      0.000000
      3.48218      3.48218      0.00000        -0.000000     -0.000000      0.000000
      3.48218      6.96436      3.48218         0.000000     -0.000000      0.000000
      6.96436      3.48218      3.48218        -0.000000      0.000000      0.000000
      6.96436      6.96436      6.96436        -0.000000     -0.000000      0.000000
    total drift:                                0.000000     -0.000000     -0.000000

  ML FREE ENERGIE OF THE ION-ELECTRON SYSTEM (eV)
  free  energy ML TOTEN  =       -66.07745674 eV

  ML energy  without entropy=      -66.07745674  ML energy(sigma->0) =      -66.07745674